other_instances/dzn_instances/tarti.dzn
% Turtle shape

num_points = 28;

seq_points = [|0,0
              |0,1
              |1,1
              |1,5
              |0,5
              |0,7
              |1,7
              |1,6
              |3,6
              |3,8
              |5,8
              |5,6
              |7,6
              |7,7
              |8,7
              |8,5
              |7,5
              |7,1
              |8,1
              |8,0
              |6,0
              |6,2
              |5,2
              |5,0
              |4,0
              |4,2
              |2,2
              |2,0
             |];