other_instances/lp_instances/tarti.lp
% Turtle shape

point(0,0).
point(0,1).
point(1,1).
point(1,5).
point(0,5).
point(0,7).
point(1,7).
point(1,6).
point(3,6).
point(3,8).
point(5,8).
point(5,6).
point(7,6).
point(7,7).
point(8,7).
point(8,5).
point(7,5).
point(7,1).
point(8,1).
point(8,0).
point(6,0).
point(6,2).
point(5,2).
point(5,0).
point(4,0).
point(4,2).
point(2,2).
point(2,0).